qbf_easy_train/easy_3017_SAT.qdimacs
p cnf 19 38
a 12 14 6 0
e 1 2 3 4 5 7 8 9 10 11 13 15 16 17 18 19 0
-3 1 0
-3 -2 0
-1 2 3 0
6 -4 0
6 5 0
4 -5 -6 0
-7 3 0
-7 -6 0
-3 6 7 0
-8 9 -10 0
8 -9 -10 0
-8 -9 10 0
8 9 10 0
-13 -11 0
-13 -12 0
11 12 13 0
-14 -10 0
-14 -13 0
10 13 14 0
-1 15 0
1 15 0
16 15 0
16 8 0
-15 -8 -16 0
-5 16 -17 0
5 -16 -17 0
-5 -16 17 0
5 16 17 0
18 -14 0
18 17 0
14 -17 -18 0
19 7 0
19 -18 0
-7 18 -19 0
9 -6 -18 2 -1 0
4 -13 -7 5 -8 3 0
4 -15 -10 13 -3 8 0
19 0
