sat_easy_train/easy_3017_SAT.dimacs
p cnf 118 386
-2 3 0
2 3 0
3 -4 -5 0
-3 4 -5 0
3 4 5 0
-3 -4 5 0
-6 1 0
-6 -5 0
-1 5 6 0
8 -6 0
8 -7 0
6 7 -8 0
-9 -8 0
-9 5 0
8 -5 9 0
-13 -12 0
-13 4 0
12 -4 13 0
-3 -13 -14 0
3 13 -14 0
-3 13 14 0
3 -13 14 0
14 15 -16 0
-14 -15 -16 0
14 -15 16 0
-14 15 16 0
-17 12 0
-17 16 0
-12 -16 17 0
18 11 0
18 -17 0
-11 17 -18 0
10 18 -19 0
-10 -18 -19 0
10 -18 19 0
-10 18 19 0
20 10 0
20 -10 0
-21 11 0
-21 -20 0
-11 20 21 0
-22 -19 0
-22 21 0
19 -21 22 0
-23 9 0
-23 22 0
-9 -22 23 0
-25 2 0
-25 24 0
-2 -24 25 0
26 25 0
26 -25 0
-27 -18 0
-27 26 0
18 -26 27 0
-29 -1 0
-29 -28 0
1 28 29 0
15 -30 -31 0
-15 30 -31 0
15 30 31 0
-15 -30 31 0
32 -29 0
32 31 0
29 -31 -32 0
33 28 0
33 -32 0
-28 32 -33 0
34 -27 0
34 33 0
27 -33 -34 0
-35 -23 0
-35 -34 0
23 34 35 0
-36 12 0
-36 -30 0
-12 30 36 0
-4 36 -37 0
4 -36 -37 0
-4 -36 37 0
4 36 37 0
24 37 -38 0
-24 -37 -38 0
24 -37 38 0
-24 37 38 0
-38 16 -39 0
38 -16 -39 0
-38 -16 39 0
38 16 39 0
-1 2 -40 0
1 -2 -40 0
-1 -2 40 0
1 2 40 0
-15 40 -41 0
15 -40 -41 0
-15 -40 41 0
15 40 41 0
42 41 0
42 -4 0
-41 4 -42 0
39 42 -43 0
-39 -42 -43 0
39 -42 43 0
-39 42 43 0
44 -35 0
44 -43 0
35 43 -44 0
-46 13 0
-46 -45 0
-13 45 46 0
-47 16 -48 0
47 -16 -48 0
-47 -16 48 0
47 16 48 0
-20 49 -50 0
20 -49 -50 0
-20 -49 50 0
20 49 50 0
51 -50 0
51 -7 0
50 7 -51 0
48 51 -52 0
-48 -51 -52 0
48 -51 52 0
-48 51 52 0
53 -46 0
53 52 0
46 -52 -53 0
-55 6 0
-55 -25 0
-6 25 55 0
-56 -54 0
-56 -55 0
54 55 56 0
57 -1 0
57 -12 0
1 12 -57 0
58 56 0
58 57 0
-56 -57 -58 0
-59 58 0
-59 -14 0
-58 14 59 0
-60 -1 0
-60 33 0
1 -33 60 0
61 -60 0
61 -47 0
60 47 -61 0
59 61 -62 0
-59 -61 -62 0
59 -61 62 0
-59 61 62 0
63 -2 0
63 -25 0
2 25 -63 0
64 54 0
64 28 0
-54 -28 -64 0
-63 -64 -65 0
63 64 -65 0
-63 64 65 0
63 -64 65 0
-38 -65 -66 0
38 65 -66 0
-38 65 66 0
38 -65 66 0
67 -10 0
67 -15 0
10 15 -67 0
-67 -38 -68 0
67 38 -68 0
-67 38 68 0
67 -38 68 0
-69 66 0
-69 -68 0
-66 68 69 0
-70 13 0
-70 24 0
-13 -24 70 0
71 69 0
71 -70 0
-69 70 -71 0
72 62 0
72 -71 0
-62 71 -72 0
73 -53 0
73 -72 0
53 72 -73 0
-44 -73 -74 0
44 73 -74 0
-44 73 74 0
44 -73 74 0
-75 37 0
-75 41 0
-37 -41 75 0
-75 -6 -76 0
75 6 -76 0
-75 6 76 0
75 -6 76 0
4 -76 -77 0
-4 76 -77 0
4 76 77 0
-4 -76 77 0
38 42 -78 0
-38 -42 -78 0
38 -42 78 0
-38 42 78 0
77 78 -79 0
-77 -78 -79 0
77 -78 79 0
-77 78 79 0
80 13 0
80 -47 0
-13 47 -80 0
-6 66 -81 0
6 -66 -81 0
-6 -66 81 0
6 66 81 0
-82 80 0
-82 81 0
-80 -81 82 0
-83 -14 0
-83 20 0
14 -20 83 0
83 -13 -84 0
-83 13 -84 0
83 13 84 0
-83 -13 84 0
-85 51 0
-85 11 0
-51 -11 85 0
-86 84 0
-86 -85 0
-84 85 86 0
87 -82 0
87 86 0
82 -86 -87 0
-88 -83 0
-88 -25 0
83 25 88 0
40 29 -89 0
-40 -29 -89 0
40 -29 89 0
-40 29 89 0
-88 89 -90 0
88 -89 -90 0
-88 -89 90 0
88 89 90 0
-91 87 0
-91 -90 0
-87 90 91 0
92 79 0
92 91 0
-79 -91 -92 0
-11 -2 -93 0
11 2 -93 0
-11 2 93 0
11 -2 93 0
94 92 0
94 -93 0
-92 93 -94 0
-95 2 0
-95 20 0
-2 -20 95 0
96 94 0
96 -95 0
-94 95 -96 0
-97 20 0
-97 7 0
-20 -7 97 0
-98 -54 0
-98 40 0
54 -40 98 0
-100 39 0
-100 -99 0
-39 99 100 0
101 -20 0
101 8 0
20 -8 -101 0
-102 41 0
-102 -27 0
-41 27 102 0
-103 -101 0
-103 -102 0
101 102 103 0
100 -103 -104 0
-100 103 -104 0
100 103 104 0
-100 -103 104 0
105 -98 0
105 104 0
98 -104 -105 0
106 -97 0
106 105 0
97 -105 -106 0
-107 68 0
-107 3 0
-68 -3 107 0
40 107 -108 0
-40 -107 -108 0
40 -107 108 0
-40 107 108 0
-63 67 -109 0
63 -67 -109 0
-63 -67 109 0
63 67 109 0
-110 -108 0
-110 109 0
108 -109 110 0
111 1 0
111 6 0
-1 -6 -111 0
112 110 0
112 -111 0
-110 111 -112 0
113 106 0
113 112 0
-106 -112 -113 0
-114 96 0
-114 -113 0
-96 113 114 0
-67 76 -115 0
67 -76 -115 0
-67 -76 115 0
67 76 115 0
-116 -57 0
-116 115 0
57 -115 116 0
117 -114 0
117 -116 0
114 116 -117 0
-118 74 0
-118 -117 0
-74 117 118 0
-3 -59 -79 89 -9 0
-84 97 18 -91 -112 0
-49 -19 0
-72 69 0
84 -80 67 32 0
55 -85 0
-56 -95 3 0
-73 -78 -34 0
-67 40 -14 -68 0
-87 -59 100 0
-28 71 -67 77 86 -73 0
-19 38 -8 0
-76 -81 -59 -103 14 37 0
90 -26 98 -82 0
70 108 -114 0
-102 118 -113 75 78 0
104 113 0
-14 36 31 -33 -79 0
106 83 68 -76 -71 30 0
-38 -52 -10 1 80 -16 0
95 85 -19 0
-110 77 0
-75 -45 44 108 -100 0
-91 -95 -10 0
23 36 0
58 -1 67 55 0
29 47 36 -107 0
48 -12 -3 0
-85 28 22 -15 -47 0
-82 -24 67 0
-109 -91 0
-107 -2 20 -9 0
65 -110 0
33 -22 0
38 21 -93 -66 116 -8 0
28 -66 -33 0
115 -38 -74 -52 0
107 87 91 -88 117 106 0
-106 29 -47 -35 53 40 0
-44 -67 -50 43 71 0
-34 -73 0
-85 61 -68 0
-66 3 -2 0
72 -2 -1 97 -109 -59 0
-94 87 -95 0
4 -98 90 0
39 88 0
-57 -21 72 0
-105 -7 57 103 -9 -98 0
-76 -16 -2 75 0
118 0
